p cnf 484 1
484 0
w 1 0.387377
w 2 1 1
w 2 -1 0
w 3 2 0.956643
w 3 -2 0.65584
w 4 3 0
w 4 -3 1
w 5 4 1
w 5 -4 0
w 6 5 0.666983
w 6 -5 0.812292
w 7 6 0.905596
w 7 -6 0.84512
w 8 7 0
w 8 -7 1
w 9 8 0
w 9 -8 1
w 10 9 0.529094
w 10 -9 0.259562
w 11 10 1
w 11 -10 0
w 12 11 1
w 12 -11 0
w 13 12 0.347024
w 13 -12 0.886927
w 14 13 0
w 14 -13 1
w 15 14 0
w 15 -14 1
w 16 15 1
w 16 -15 0
w 17 16 0
w 17 -16 1
w 18 17 0
w 18 -17 1
w 19 18 1
w 19 -18 0
w 20 19 0.242202
w 20 -19 0.481895
w 21 20 0
w 21 -20 1
w 22 21 0.702796
w 22 -21 0.49794
w 23 1 0
w 23 -1 1
w 24 23 2 1
w 24 23 -2 0
w 24 -23 2 0
w 24 -23 -2 0
w 25 24 3 0
w 25 24 -3 1
w 25 -24 3 1
w 25 -24 -3 1
w 26 25 4 0
w 26 25 -4 1
w 26 -25 4 1
w 26 -25 -4 0
w 27 26 5 0
w 27 26 -5 1
w 27 -26 5 0
w 27 -26 -5 0
w 28 27 6 1
w 28 27 -6 1
w 28 -27 6 0
w 28 -27 -6 0
w 29 28 7 0.4734
w 29 28 -7 0.891101
w 29 -28 7 0.256698
w 29 -28 -7 0.545711
w 30 29 8 0
w 30 29 -8 1
w 30 -29 8 0
w 30 -29 -8 1
w 31 30 9 1
w 31 30 -9 1
w 31 -30 9 1
w 31 -30 -9 0
w 32 31 10 1
w 32 31 -10 0
w 32 -31 10 0
w 32 -31 -10 0
w 33 32 11 0
w 33 32 -11 1
w 33 -32 11 0
w 33 -32 -11 0
w 34 33 12 1
w 34 33 -12 1
w 34 -33 12 1
w 34 -33 -12 0
w 35 34 13 1
w 35 34 -13 0
w 35 -34 13 0
w 35 -34 -13 1
w 36 35 14 0
w 36 35 -14 1
w 36 -35 14 1
w 36 -35 -14 1
w 37 36 15 0
w 37 36 -15 0
w 37 -36 15 1
w 37 -36 -15 0
w 38 37 16 0
w 38 37 -16 1
w 38 -37 16 1
w 38 -37 -16 0
w 39 38 17 1
w 39 38 -17 0
w 39 -38 17 0
w 39 -38 -17 1
w 40 39 18 0.644052
w 40 39 -18 0.110105
w 40 -39 18 0.782191
w 40 -39 -18 0.145547
w 41 40 19 1
w 41 40 -19 0
w 41 -40 19 0
w 41 -40 -19 0
w 42 41 20 0
w 42 41 -20 1
w 42 -41 20 1
w 42 -41 -20 1
w 43 42 21 0.643305
w 43 42 -21 0.519076
w 43 -42 21 0.208789
w 43 -42 -21 0.770286
w 44 43 22 0
w 44 43 -22 1
w 44 -43 22 0
w 44 -43 -22 0
w 45 23 0.88958
w 45 -23 0.633286
w 46 45 24 1
w 46 45 -24 0
w 46 -45 24 1
w 46 -45 -24 1
w 47 46 25 1
w 47 46 -25 1
w 47 -46 25 0
w 47 -46 -25 0
w 48 47 26 1
w 48 47 -26 0
w 48 -47 26 1
w 48 -47 -26 1
w 49 48 27 0
w 49 48 -27 1
w 49 -48 27 0
w 49 -48 -27 0
w 50 49 28 0
w 50 49 -28 0
w 50 -49 28 1
w 50 -49 -28 1
w 51 50 29 0
w 51 50 -29 1
w 51 -50 29 1
w 51 -50 -29 1
w 52 51 30 0
w 52 51 -30 1
w 52 -51 30 0
w 52 -51 -30 1
w 53 52 31 1
w 53 52 -31 0
w 53 -52 31 0
w 53 -52 -31 0
w 54 53 32 0.811872
w 54 53 -32 0.850256
w 54 -53 32 0.233903
w 54 -53 -32 0.856668
w 55 54 33 0
w 55 54 -33 1
w 55 -54 33 1
w 55 -54 -33 1
w 56 55 34 0.699643
w 56 55 -34 0.769441
w 56 -55 34 0.684147
w 56 -55 -34 0.418982
w 57 56 35 0.228284
w 57 56 -35 0.0544637
w 57 -56 35 0.0731103
w 57 -56 -35 0.405706
w 58 57 36 0
w 58 57 -36 0
w 58 -57 36 1
w 58 -57 -36 1
w 59 58 37 1
w 59 58 -37 0
w 59 -58 37 1
w 59 -58 -37 1
w 60 59 38 0
w 60 59 -38 1
w 60 -59 38 1
w 60 -59 -38 1
w 61 60 39 0
w 61 60 -39 1
w 61 -60 39 1
w 61 -60 -39 0
w 62 61 40 0
w 62 61 -40 1
w 62 -61 40 1
w 62 -61 -40 1
w 63 62 41 1
w 63 62 -41 1
w 63 -62 41 0
w 63 -62 -41 0
w 64 63 42 0.773876
w 64 63 -42 0.328419
w 64 -63 42 0.484103
w 64 -63 -42 0.344233
w 65 64 43 0
w 65 64 -43 1
w 65 -64 43 0
w 65 -64 -43 1
w 66 65 44 1
w 66 65 -44 0
w 66 -65 44 0
w 66 -65 -44 0
w 67 45 1
w 67 -45 0
w 68 67 46 1
w 68 67 -46 1
w 68 -67 46 0
w 68 -67 -46 0
w 69 68 47 1
w 69 68 -47 0
w 69 -68 47 0
w 69 -68 -47 1
w 70 69 48 0
w 70 69 -48 1
w 70 -69 48 0
w 70 -69 -48 0
w 71 70 49 1
w 71 70 -49 1
w 71 -70 49 1
w 71 -70 -49 0
w 72 71 50 0.709504
w 72 71 -50 0.511248
w 72 -71 50 0.114668
w 72 -71 -50 0.27438
w 73 72 51 0
w 73 72 -51 0
w 73 -72 51 0
w 73 -72 -51 1
w 74 73 52 0.221471
w 74 73 -52 0.322143
w 74 -73 52 0.0646554
w 74 -73 -52 0.44144
w 75 74 53 0.288564
w 75 74 -53 0.237029
w 75 -74 53 0.0288358
w 75 -74 -53 0.645538
w 76 75 54 0.899377
w 76 75 -54 0.208688
w 76 -75 54 0.645624
w 76 -75 -54 0.688247
w 77 76 55 0
w 77 76 -55 0
w 77 -76 55 1
w 77 -76 -55 0
w 78 77 56 0.936477
w 78 77 -56 0.91012
w 78 -77 56 0.0641683
w 78 -77 -56 0.210857
w 79 78 57 1
w 79 78 -57 0
w 79 -78 57 1
w 79 -78 -57 1
w 80 79 58 1
w 80 79 -58 0
w 80 -79 58 0
w 80 -79 -58 1
w 81 80 59 1
w 81 80 -59 0
w 81 -80 59 1
w 81 -80 -59 0
w 82 81 60 0.157615
w 82 81 -60 0.554479
w 82 -81 60 0.0991153
w 82 -81 -60 0.803239
w 83 82 61 0
w 83 82 -61 1
w 83 -82 61 0
w 83 -82 -61 1
w 84 83 62 0.153446
w 84 83 -62 0.808279
w 84 -83 62 0.895378
w 84 -83 -62 0.217615
w 85 84 63 1
w 85 84 -63 0
w 85 -84 63 0
w 85 -84 -63 0
w 86 85 64 1
w 86 85 -64 1
w 86 -85 64 0
w 86 -85 -64 1
w 87 86 65 0
w 87 86 -65 0
w 87 -86 65 1
w 87 -86 -65 0
w 88 87 66 0.350238
w 88 87 -66 0.372347
w 88 -87 66 0.513213
w 88 -87 -66 0.449353
w 89 67 0
w 89 -67 1
w 90 89 68 1
w 90 89 -68 0
w 90 -89 68 1
w 90 -89 -68 1
w 91 90 69 0
w 91 90 -69 1
w 91 -90 69 1
w 91 -90 -69 0
w 92 91 70 1
w 92 91 -70 0
w 92 -91 70 0
w 92 -91 -70 1
w 93 92 71 0
w 93 92 -71 0
w 93 -92 71 1
w 93 -92 -71 0
w 94 93 72 0.136213
w 94 93 -72 0.415443
w 94 -93 72 0.161632
w 94 -93 -72 0.0949469
w 95 94 73 0.53398
w 95 94 -73 0.60816
w 95 -94 73 0.215034
w 95 -94 -73 0.709566
w 96 95 74 1
w 96 95 -74 0
w 96 -95 74 0
w 96 -95 -74 0
w 97 96 75 0
w 97 96 -75 0
w 97 -96 75 1
w 97 -96 -75 1
w 98 97 76 0.976567
w 98 97 -76 0.845001
w 98 -97 76 0.0923958
w 98 -97 -76 0.458682
w 99 98 77 0
w 99 98 -77 1
w 99 -98 77 0
w 99 -98 -77 1
w 100 99 78 1
w 100 99 -78 0
w 100 -99 78 1
w 100 -99 -78 1
w 101 100 79 1
w 101 100 -79 0
w 101 -100 79 0
w 101 -100 -79 0
w 102 101 80 0
w 102 101 -80 1
w 102 -101 80 0
w 102 -101 -80 1
w 103 102 81 0
w 103 102 -81 1
w 103 -102 81 0
w 103 -102 -81 1
w 104 103 82 0.0279222
w 104 103 -82 0.0222809
w 104 -103 82 0.658168
w 104 -103 -82 0.120318
w 105 104 83 0
w 105 104 -83 1
w 105 -104 83 1
w 105 -104 -83 1
w 106 105 84 1
w 106 105 -84 0
w 106 -105 84 0
w 106 -105 -84 0
w 107 106 85 1
w 107 106 -85 0
w 107 -106 85 0
w 107 -106 -85 0
w 108 107 86 1
w 108 107 -86 0
w 108 -107 86 1
w 108 -107 -86 1
w 109 108 87 0.289178
w 109 108 -87 0.656542
w 109 -108 87 0.831488
w 109 -108 -87 0.474238
w 110 109 88 0
w 110 109 -88 1
w 110 -109 88 0
w 110 -109 -88 0
w 111 89 0
w 111 -89 1
w 112 111 90 1
w 112 111 -90 1
w 112 -111 90 0
w 112 -111 -90 1
w 113 112 91 0.103046
w 113 112 -91 0.127089
w 113 -112 91 0.144293
w 113 -112 -91 0.078918
w 114 113 92 0.156899
w 114 113 -92 0.9743
w 114 -113 92 0.16227
w 114 -113 -92 0.663535
w 115 114 93 1
w 115 114 -93 0
w 115 -114 93 1
w 115 -114 -93 0
w 116 115 94 0.77136
w 116 115 -94 0.079266
w 116 -115 94 0.494537
w 116 -115 -94 0.416015
w 117 116 95 0
w 117 116 -95 0
w 117 -116 95 1
w 117 -116 -95 0
w 118 117 96 0.194311
w 118 117 -96 0.310429
w 118 -117 96 0.707007
w 118 -117 -96 0.632835
w 119 118 97 1
w 119 118 -97 1
w 119 -118 97 0
w 119 -118 -97 0
w 120 119 98 0.0278456
w 120 119 -98 0.924348
w 120 -119 98 0.789099
w 120 -119 -98 0.190116
w 121 120 99 0
w 121 120 -99 0
w 121 -120 99 0
w 121 -120 -99 1
w 122 121 100 1
w 122 121 -100 0
w 122 -121 100 1
w 122 -121 -100 1
w 123 122 101 0.229515
w 123 122 -101 0.788473
w 123 -122 101 0.975591
w 123 -122 -101 0.654088
w 124 123 102 0
w 124 123 -102 1
w 124 -123 102 0
w 124 -123 -102 0
w 125 124 103 0.538619
w 125 124 -103 0.154942
w 125 -124 103 0.654602
w 125 -124 -103 0.353418
w 126 125 104 1
w 126 125 -104 0
w 126 -125 104 1
w 126 -125 -104 1
w 127 126 105 1
w 127 126 -105 1
w 127 -126 105 0
w 127 -126 -105 0
w 128 127 106 1
w 128 127 -106 1
w 128 -127 106 0
w 128 -127 -106 1
w 129 128 107 0.646319
w 129 128 -107 0.478899
w 129 -128 107 0.927398
w 129 -128 -107 0.300407
w 130 129 108 0
w 130 129 -108 1
w 130 -129 108 0
w 130 -129 -108 0
w 131 130 109 0
w 131 130 -109 1
w 131 -130 109 0
w 131 -130 -109 0
w 132 131 110 0.59884
w 132 131 -110 0.420594
w 132 -131 110 0.934593
w 132 -131 -110 0.971743
w 133 111 0
w 133 -111 1
w 134 133 112 0.477885
w 134 133 -112 0.986669
w 134 -133 112 0.840475
w 134 -133 -112 0.884246
w 135 134 113 1
w 135 134 -113 0
w 135 -134 113 1
w 135 -134 -113 1
w 136 135 114 0.776783
w 136 135 -114 0.899803
w 136 -135 114 0.247775
w 136 -135 -114 0.812672
w 137 136 115 0.512699
w 137 136 -115 0.11256
w 137 -136 115 0.897142
w 137 -136 -115 0.773808
w 138 137 116 1
w 138 137 -116 1
w 138 -137 116 0
w 138 -137 -116 1
w 139 138 117 0.561839
w 139 138 -117 0.0624658
w 139 -138 117 0.760443
w 139 -138 -117 0.149266
w 140 139 118 0
w 140 139 -118 1
w 140 -139 118 0
w 140 -139 -118 1
w 141 140 119 0
w 141 140 -119 0
w 141 -140 119 1
w 141 -140 -119 1
w 142 141 120 1
w 142 141 -120 1
w 142 -141 120 0
w 142 -141 -120 1
w 143 142 121 0
w 143 142 -121 1
w 143 -142 121 1
w 143 -142 -121 1
w 144 143 122 0
w 144 143 -122 0
w 144 -143 122 1
w 144 -143 -122 0
w 145 144 123 0
w 145 144 -123 0
w 145 -144 123 1
w 145 -144 -123 0
w 146 145 124 0.846685
w 146 145 -124 0.644157
w 146 -145 124 0.455095
w 146 -145 -124 0.915319
w 147 146 125 0
w 147 146 -125 0
w 147 -146 125 0
w 147 -146 -125 1
w 148 147 126 0
w 148 147 -126 0
w 148 -147 126 1
w 148 -147 -126 0
w 149 148 127 0
w 149 148 -127 0
w 149 -148 127 1
w 149 -148 -127 1
w 150 149 128 0.360737
w 150 149 -128 0.53117
w 150 -149 128 0.511089
w 150 -149 -128 0.844696
w 151 150 129 0
w 151 150 -129 1
w 151 -150 129 0
w 151 -150 -129 1
w 152 151 130 0
w 152 151 -130 1
w 152 -151 130 1
w 152 -151 -130 1
w 153 152 131 1
w 153 152 -131 1
w 153 -152 131 0
w 153 -152 -131 1
w 154 153 132 0.470468
w 154 153 -132 0.893912
w 154 -153 132 0.213019
w 154 -153 -132 0.827154
w 155 133 0
w 155 -133 1
w 156 155 134 1
w 156 155 -134 0
w 156 -155 134 1
w 156 -155 -134 0
w 157 156 135 1
w 157 156 -135 0
w 157 -156 135 1
w 157 -156 -135 1
w 158 157 136 1
w 158 157 -136 1
w 158 -157 136 0
w 158 -157 -136 0
w 159 158 137 0.918397
w 159 158 -137 0.729293
w 159 -158 137 0.665054
w 159 -158 -137 0.494614
w 160 159 138 1
w 160 159 -138 0
w 160 -159 138 0
w 160 -159 -138 0
w 161 160 139 1
w 161 160 -139 0
w 161 -160 139 1
w 161 -160 -139 1
w 162 161 140 1
w 162 161 -140 1
w 162 -161 140 0
w 162 -161 -140 0
w 163 162 141 1
w 163 162 -141 0
w 163 -162 141 0
w 163 -162 -141 0
w 164 163 142 1
w 164 163 -142 1
w 164 -163 142 0
w 164 -163 -142 1
w 165 164 143 0.299258
w 165 164 -143 0.450565
w 165 -164 143 0.520427
w 165 -164 -143 0.793872
w 166 165 144 1
w 166 165 -144 1
w 166 -165 144 0
w 166 -165 -144 1
w 167 166 145 1
w 167 166 -145 0
w 167 -166 145 0
w 167 -166 -145 0
w 168 167 146 1
w 168 167 -146 0
w 168 -167 146 1
w 168 -167 -146 1
w 169 168 147 1
w 169 168 -147 1
w 169 -168 147 1
w 169 -168 -147 0
w 170 169 148 1
w 170 169 -148 1
w 170 -169 148 1
w 170 -169 -148 0
w 171 170 149 1
w 171 170 -149 1
w 171 -170 149 1
w 171 -170 -149 0
w 172 171 150 0
w 172 171 -150 0
w 172 -171 150 1
w 172 -171 -150 0
w 173 172 151 1
w 173 172 -151 0
w 173 -172 151 1
w 173 -172 -151 1
w 174 173 152 0
w 174 173 -152 0
w 174 -173 152 1
w 174 -173 -152 0
w 175 174 153 0
w 175 174 -153 1
w 175 -174 153 1
w 175 -174 -153 1
w 176 175 154 0.850536
w 176 175 -154 0.610041
w 176 -175 154 0.102102
w 176 -175 -154 0.264729
w 177 155 1
w 177 -155 0
w 178 177 156 0
w 178 177 -156 0
w 178 -177 156 1
w 178 -177 -156 0
w 179 178 157 1
w 179 178 -157 1
w 179 -178 157 0
w 179 -178 -157 1
w 180 179 158 0
w 180 179 -158 0
w 180 -179 158 0
w 180 -179 -158 1
w 181 180 159 0.720436
w 181 180 -159 0.531955
w 181 -180 159 0.185702
w 181 -180 -159 0.866156
w 182 181 160 0
w 182 181 -160 1
w 182 -181 160 1
w 182 -181 -160 0
w 183 182 161 0.39017
w 183 182 -161 0.458582
w 183 -182 161 0.551652
w 183 -182 -161 0.0678477
w 184 183 162 0
w 184 183 -162 1
w 184 -183 162 1
w 184 -183 -162 0
w 185 184 163 1
w 185 184 -163 1
w 185 -184 163 1
w 185 -184 -163 0
w 186 185 164 0
w 186 185 -164 0
w 186 -185 164 0
w 186 -185 -164 1
w 187 186 165 0.391765
w 187 186 -165 0.454645
w 187 -186 165 0.459463
w 187 -186 -165 0.577467
w 188 187 166 1
w 188 187 -166 1
w 188 -187 166 1
w 188 -187 -166 0
w 189 188 167 0
w 189 188 -167 0
w 189 -188 167 0
w 189 -188 -167 1
w 190 189 168 1
w 190 189 -168 1
w 190 -189 168 1
w 190 -189 -168 0
w 191 190 169 1
w 191 190 -169 0
w 191 -190 169 1
w 191 -190 -169 1
w 192 191 170 1
w 192 191 -170 0
w 192 -191 170 1
w 192 -191 -170 0
w 193 192 171 0
w 193 192 -171 1
w 193 -192 171 0
w 193 -192 -171 1
w 194 193 172 1
w 194 193 -172 0
w 194 -193 172 0
w 194 -193 -172 1
w 195 194 173 0.034405
w 195 194 -173 0.600022
w 195 -194 173 0.46451
w 195 -194 -173 0.92435
w 196 195 174 0
w 196 195 -174 1
w 196 -195 174 0
w 196 -195 -174 1
w 197 196 175 0
w 197 196 -175 0
w 197 -196 175 0
w 197 -196 -175 1
w 198 197 176 0
w 198 197 -176 0
w 198 -197 176 0
w 198 -197 -176 1
w 199 177 1
w 199 -177 0
w 200 199 178 0
w 200 199 -178 1
w 200 -199 178 0
w 200 -199 -178 1
w 201 200 179 0
w 201 200 -179 1
w 201 -200 179 0
w 201 -200 -179 1
w 202 201 180 0
w 202 201 -180 1
w 202 -201 180 1
w 202 -201 -180 1
w 203 202 181 0
w 203 202 -181 0
w 203 -202 181 0
w 203 -202 -181 1
w 204 203 182 1
w 204 203 -182 0
w 204 -203 182 1
w 204 -203 -182 1
w 205 204 183 0.785207
w 205 204 -183 0.526678
w 205 -204 183 0.562699
w 205 -204 -183 0.234595
w 206 205 184 0
w 206 205 -184 0
w 206 -205 184 1
w 206 -205 -184 1
w 207 206 185 1
w 207 206 -185 0
w 207 -206 185 0
w 207 -206 -185 1
w 208 207 186 0
w 208 207 -186 0
w 208 -207 186 1
w 208 -207 -186 0
w 209 208 187 0.977007
w 209 208 -187 0.479495
w 209 -208 187 0.414149
w 209 -208 -187 0.262578
w 210 209 188 1
w 210 209 -188 1
w 210 -209 188 1
w 210 -209 -188 0
w 211 210 189 0
w 211 210 -189 1
w 211 -210 189 0
w 211 -210 -189 1
w 212 211 190 0
w 212 211 -190 1
w 212 -211 190 1
w 212 -211 -190 1
w 213 212 191 0
w 213 212 -191 1
w 213 -212 191 1
w 213 -212 -191 0
w 214 213 192 0.133689
w 214 213 -192 0.823269
w 214 -213 192 0.888486
w 214 -213 -192 0.0208216
w 215 214 193 1
w 215 214 -193 0
w 215 -214 193 1
w 215 -214 -193 1
w 216 215 194 0
w 216 215 -194 1
w 216 -215 194 0
w 216 -215 -194 0
w 217 216 195 0.477738
w 217 216 -195 0.186015
w 217 -216 195 0.206214
w 217 -216 -195 0.0951884
w 218 217 196 0
w 218 217 -196 1
w 218 -217 196 0
w 218 -217 -196 0
w 219 218 197 0
w 219 218 -197 1
w 219 -218 197 1
w 219 -218 -197 1
w 220 219 198 1
w 220 219 -198 0
w 220 -219 198 1
w 220 -219 -198 1
w 221 199 0
w 221 -199 1
w 222 221 200 0.247152
w 222 221 -200 0.872401
w 222 -221 200 0.232122
w 222 -221 -200 0.517556
w 223 222 201 1
w 223 222 -201 1
w 223 -222 201 1
w 223 -222 -201 0
w 224 223 202 0.684339
w 224 223 -202 0.51347
w 224 -223 202 0.375946
w 224 -223 -202 0.759403
w 225 224 203 0
w 225 224 -203 1
w 225 -224 203 0
w 225 -224 -203 0
w 226 225 204 1
w 226 225 -204 0
w 226 -225 204 0
w 226 -225 -204 1
w 227 226 205 0.281495
w 227 226 -205 0.988877
w 227 -226 205 0.682115
w 227 -226 -205 0.253209
w 228 227 206 1
w 228 227 -206 1
w 228 -227 206 1
w 228 -227 -206 0
w 229 228 207 0.694127
w 229 228 -207 0.776983
w 229 -228 207 0.466402
w 229 -228 -207 0.112409
w 230 229 208 0
w 230 229 -208 1
w 230 -229 208 1
w 230 -229 -208 0
w 231 230 209 0.822035
w 231 230 -209 0.218285
w 231 -230 209 0.461178
w 231 -230 -209 0.71171
w 232 231 210 0.815724
w 232 231 -210 0.993573
w 232 -231 210 0.752851
w 232 -231 -210 0.123334
w 233 232 211 0
w 233 232 -211 1
w 233 -232 211 1
w 233 -232 -211 1
w 234 233 212 1
w 234 233 -212 1
w 234 -233 212 1
w 234 -233 -212 0
w 235 234 213 1
w 235 234 -213 0
w 235 -234 213 1
w 235 -234 -213 1
w 236 235 214 1
w 236 235 -214 0
w 236 -235 214 0
w 236 -235 -214 1
w 237 236 215 0.22709
w 237 236 -215 0.877216
w 237 -236 215 0.28898
w 237 -236 -215 0.9388
w 238 237 216 0.104704
w 238 237 -216 0.932373
w 238 -237 216 0.527392
w 238 -237 -216 0.228038
w 239 238 217 1
w 239 238 -217 1
w 239 -238 217 1
w 239 -238 -217 0
w 240 239 218 1
w 240 239 -218 1
w 240 -239 218 0
w 240 -239 -218 0
w 241 240 219 1
w 241 240 -219 1
w 241 -240 219 0
w 241 -240 -219 0
w 242 241 220 0
w 242 241 -220 1
w 242 -241 220 1
w 242 -241 -220 0
w 243 221 1
w 243 -221 0
w 244 243 222 0
w 244 243 -222 1
w 244 -243 222 1
w 244 -243 -222 1
w 245 244 223 0
w 245 244 -223 0
w 245 -244 223 1
w 245 -244 -223 1
w 246 245 224 1
w 246 245 -224 1
w 246 -245 224 0
w 246 -245 -224 0
w 247 246 225 0.237012
w 247 246 -225 0.302405
w 247 -246 225 0.487993
w 247 -246 -225 0.802933
w 248 247 226 0
w 248 247 -226 1
w 248 -247 226 0
w 248 -247 -226 0
w 249 248 227 0
w 249 248 -227 1
w 249 -248 227 1
w 249 -248 -227 0
w 250 249 228 0.314672
w 250 249 -228 0.497886
w 250 -249 228 0.123689
w 250 -249 -228 0.965598
w 251 250 229 0.874524
w 251 250 -229 0.844563
w 251 -250 229 0.459265
w 251 -250 -229 0.826104
w 252 251 230 0
w 252 251 -230 1
w 252 -251 230 1
w 252 -251 -230 1
w 253 252 231 1
w 253 252 -231 0
w 253 -252 231 0
w 253 -252 -231 0
w 254 253 232 0
w 254 253 -232 1
w 254 -253 232 0
w 254 -253 -232 1
w 255 254 233 0
w 255 254 -233 0
w 255 -254 233 0
w 255 -254 -233 1
w 256 255 234 0
w 256 255 -234 0
w 256 -255 234 1
w 256 -255 -234 1
w 257 256 235 0
w 257 256 -235 1
w 257 -256 235 1
w 257 -256 -235 0
w 258 257 236 0.918424
w 258 257 -236 0.555433
w 258 -257 236 0.127135
w 258 -257 -236 0.187237
w 259 258 237 0.523278
w 259 258 -237 0.758455
w 259 -258 237 0.6592
w 259 -258 -237 0.722354
w 260 259 238 0.281864
w 260 259 -238 0.88833
w 260 -259 238 0.0909196
w 260 -259 -238 0.497053
w 261 260 239 0.809246
w 261 260 -239 0.475559
w 261 -260 239 0.430935
w 261 -260 -239 0.296022
w 262 261 240 1
w 262 261 -240 1
w 262 -261 240 0
w 262 -261 -240 1
w 263 262 241 0.657401
w 263 262 -241 0.744495
w 263 -262 241 0.476128
w 263 -262 -241 0.521203
w 264 263 242 0.444132
w 264 263 -242 0.439628
w 264 -263 242 0.521463
w 264 -263 -242 0.571268
w 265 243 0
w 265 -243 1
w 266 265 244 1
w 266 265 -244 1
w 266 -265 244 1
w 266 -265 -244 0
w 267 266 245 0
w 267 266 -245 1
w 267 -266 245 0
w 267 -266 -245 1
w 268 267 246 1
w 268 267 -246 0
w 268 -267 246 0
w 268 -267 -246 1
w 269 268 247 0.562782
w 269 268 -247 0.166591
w 269 -268 247 0.247344
w 269 -268 -247 0.4273
w 270 269 248 0.991838
w 270 269 -248 0.903428
w 270 -269 248 0.345196
w 270 -269 -248 0.957869
w 271 270 249 0
w 271 270 -249 0
w 271 -270 249 0
w 271 -270 -249 1
w 272 271 250 0.0133741
w 272 271 -250 0.797009
w 272 -271 250 0.908097
w 272 -271 -250 0.830274
w 273 272 251 1
w 273 272 -251 1
w 273 -272 251 0
w 273 -272 -251 1
w 274 273 252 0
w 274 273 -252 0
w 274 -273 252 0
w 274 -273 -252 1
w 275 274 253 1
w 275 274 -253 0
w 275 -274 253 0
w 275 -274 -253 0
w 276 275 254 1
w 276 275 -254 0
w 276 -275 254 0
w 276 -275 -254 1
w 277 276 255 1
w 277 276 -255 1
w 277 -276 255 0
w 277 -276 -255 1
w 278 277 256 0.683598
w 278 277 -256 0.234048
w 278 -277 256 0.59833
w 278 -277 -256 0.591694
w 279 278 257 0
w 279 278 -257 1
w 279 -278 257 1
w 279 -278 -257 1
w 280 279 258 0.77452
w 280 279 -258 0.686101
w 280 -279 258 0.237783
w 280 -279 -258 0.0193407
w 281 280 259 1
w 281 280 -259 1
w 281 -280 259 1
w 281 -280 -259 0
w 282 281 260 1
w 282 281 -260 1
w 282 -281 260 1
w 282 -281 -260 0
w 283 282 261 0
w 283 282 -261 1
w 283 -282 261 1
w 283 -282 -261 1
w 284 283 262 0.778403
w 284 283 -262 0.132142
w 284 -283 262 0.596135
w 284 -283 -262 0.370097
w 285 284 263 1
w 285 284 -263 0
w 285 -284 263 1
w 285 -284 -263 0
w 286 285 264 1
w 286 285 -264 0
w 286 -285 264 0
w 286 -285 -264 0
w 287 265 0.822813
w 287 -265 0.752592
w 288 287 266 1
w 288 287 -266 0
w 288 -287 266 1
w 288 -287 -266 0
w 289 288 267 0
w 289 288 -267 0
w 289 -288 267 0
w 289 -288 -267 1
w 290 289 268 0.610777
w 290 289 -268 0.527016
w 290 -289 268 0.968434
w 290 -289 -268 0.38918
w 291 290 269 1
w 291 290 -269 0
w 291 -290 269 0
w 291 -290 -269 1
w 292 291 270 0.651911
w 292 291 -270 0.176401
w 292 -291 270 0.0332296
w 292 -291 -270 0.222721
w 293 292 271 0
w 293 292 -271 1
w 293 -292 271 0
w 293 -292 -271 1
w 294 293 272 1
w 294 293 -272 0
w 294 -293 272 1
w 294 -293 -272 0
w 295 294 273 0.111592
w 295 294 -273 0.680024
w 295 -294 273 0.678722
w 295 -294 -273 0.627564
w 296 295 274 1
w 296 295 -274 0
w 296 -295 274 0
w 296 -295 -274 0
w 297 296 275 0
w 297 296 -275 1
w 297 -296 275 0
w 297 -296 -275 0
w 298 297 276 1
w 298 297 -276 0
w 298 -297 276 0
w 298 -297 -276 0
w 299 298 277 1
w 299 298 -277 0
w 299 -298 277 1
w 299 -298 -277 1
w 300 299 278 0.603711
w 300 299 -278 0.548197
w 300 -299 278 0.8336
w 300 -299 -278 0.474654
w 301 300 279 1
w 301 300 -279 1
w 301 -300 279 0
w 301 -300 -279 1
w 302 301 280 0
w 302 301 -280 1
w 302 -301 280 1
w 302 -301 -280 1
w 303 302 281 0
w 303 302 -281 1
w 303 -302 281 0
w 303 -302 -281 0
w 304 303 282 0.873915
w 304 303 -282 0.808279
w 304 -303 282 0.950174
w 304 -303 -282 0.0578383
w 305 304 283 0
w 305 304 -283 0
w 305 -304 283 1
w 305 -304 -283 0
w 306 305 284 0.817508
w 306 305 -284 0.399302
w 306 -305 284 0.637501
w 306 -305 -284 0.292162
w 307 306 285 0
w 307 306 -285 0
w 307 -306 285 1
w 307 -306 -285 1
w 308 307 286 1
w 308 307 -286 0
w 308 -307 286 0
w 308 -307 -286 0
w 309 287 0
w 309 -287 1
w 310 309 288 0
w 310 309 -288 1
w 310 -309 288 0
w 310 -309 -288 1
w 311 310 289 0.494571
w 311 310 -289 0.341017
w 311 -310 289 0.0821087
w 311 -310 -289 0.670121
w 312 311 290 0.989698
w 312 311 -290 0.883919
w 312 -311 290 0.64762
w 312 -311 -290 0.793599
w 313 312 291 1
w 313 312 -291 0
w 313 -312 291 1
w 313 -312 -291 0
w 314 313 292 0.871998
w 314 313 -292 0.355701
w 314 -313 292 0.599358
w 314 -313 -292 0.964216
w 315 314 293 0
w 315 314 -293 1
w 315 -314 293 1
w 315 -314 -293 0
w 316 315 294 1
w 316 315 -294 0
w 316 -315 294 0
w 316 -315 -294 1
w 317 316 295 1
w 317 316 -295 0
w 317 -316 295 1
w 317 -316 -295 1
w 318 317 296 0.193732
w 318 317 -296 0.44414
w 318 -317 296 0.478652
w 318 -317 -296 0.98733
w 319 318 297 1
w 319 318 -297 0
w 319 -318 297 0
w 319 -318 -297 1
w 320 319 298 0
w 320 319 -298 0
w 320 -319 298 1
w 320 -319 -298 1
w 321 320 299 0.282756
w 321 320 -299 0.483956
w 321 -320 299 0.112621
w 321 -320 -299 0.283816
w 322 321 300 1
w 322 321 -300 1
w 322 -321 300 0
w 322 -321 -300 0
w 323 322 301 1
w 323 322 -301 1
w 323 -322 301 1
w 323 -322 -301 0
w 324 323 302 0.253191
w 324 323 -302 0.359409
w 324 -323 302 0.253742
w 324 -323 -302 0.731843
w 325 324 303 1
w 325 324 -303 0
w 325 -324 303 1
w 325 -324 -303 1
w 326 325 304 0
w 326 325 -304 1
w 326 -325 304 0
w 326 -325 -304 1
w 327 326 305 1
w 327 326 -305 1
w 327 -326 305 0
w 327 -326 -305 1
w 328 327 306 1
w 328 327 -306 0
w 328 -327 306 0
w 328 -327 -306 1
w 329 328 307 0
w 329 328 -307 0
w 329 -328 307 1
w 329 -328 -307 0
w 330 329 308 0
w 330 329 -308 1
w 330 -329 308 0
w 330 -329 -308 0
w 331 309 0.298718
w 331 -309 0.116205
w 332 331 310 0
w 332 331 -310 0
w 332 -331 310 0
w 332 -331 -310 1
w 333 332 311 1
w 333 332 -311 0
w 333 -332 311 1
w 333 -332 -311 0
w 334 333 312 0.738236
w 334 333 -312 0.793633
w 334 -333 312 0.348419
w 334 -333 -312 0.363768
w 335 334 313 0.424072
w 335 334 -313 0.829017
w 335 -334 313 0.242692
w 335 -334 -313 0.887366
w 336 335 314 0
w 336 335 -314 1
w 336 -335 314 0
w 336 -335 -314 0
w 337 336 315 0.0762918
w 337 336 -315 0.781947
w 337 -336 315 0.0991782
w 337 -336 -315 0.192497
w 338 337 316 0.163065
w 338 337 -316 0.847169
w 338 -337 316 0.543685
w 338 -337 -316 0.217329
w 339 338 317 1
w 339 338 -317 1
w 339 -338 317 0
w 339 -338 -317 0
w 340 339 318 1
w 340 339 -318 0
w 340 -339 318 0
w 340 -339 -318 0
w 341 340 319 0
w 341 340 -319 1
w 341 -340 319 1
w 341 -340 -319 1
w 342 341 320 0.771253
w 342 341 -320 0.486114
w 342 -341 320 0.816162
w 342 -341 -320 0.13065
w 343 342 321 0
w 343 342 -321 1
w 343 -342 321 0
w 343 -342 -321 1
w 344 343 322 0
w 344 343 -322 0
w 344 -343 322 1
w 344 -343 -322 1
w 345 344 323 1
w 345 344 -323 0
w 345 -344 323 0
w 345 -344 -323 1
w 346 345 324 0.236168
w 346 345 -324 0.597807
w 346 -345 324 0.714684
w 346 -345 -324 0.638025
w 347 346 325 1
w 347 346 -325 1
w 347 -346 325 0
w 347 -346 -325 0
w 348 347 326 0
w 348 347 -326 0
w 348 -347 326 0
w 348 -347 -326 1
w 349 348 327 0
w 349 348 -327 0
w 349 -348 327 1
w 349 -348 -327 1
w 350 349 328 0
w 350 349 -328 0
w 350 -349 328 1
w 350 -349 -328 1
w 351 350 329 1
w 351 350 -329 1
w 351 -350 329 1
w 351 -350 -329 0
w 352 351 330 0.702557
w 352 351 -330 0.951599
w 352 -351 330 0.519186
w 352 -351 -330 0.340582
w 353 331 1
w 353 -331 0
w 354 353 332 0.624494
w 354 353 -332 0.0881991
w 354 -353 332 0.981787
w 354 -353 -332 0.78451
w 355 354 333 0
w 355 354 -333 0
w 355 -354 333 1
w 355 -354 -333 1
w 356 355 334 0
w 356 355 -334 1
w 356 -355 334 0
w 356 -355 -334 0
w 357 356 335 0
w 357 356 -335 0
w 357 -356 335 0
w 357 -356 -335 1
w 358 357 336 1
w 358 357 -336 0
w 358 -357 336 1
w 358 -357 -336 1
w 359 358 337 1
w 359 358 -337 0
w 359 -358 337 0
w 359 -358 -337 0
w 360 359 338 0
w 360 359 -338 1
w 360 -359 338 1
w 360 -359 -338 1
w 361 360 339 0
w 361 360 -339 1
w 361 -360 339 0
w 361 -360 -339 1
w 362 361 340 0.77913
w 362 361 -340 0.224042
w 362 -361 340 0.726862
w 362 -361 -340 0.441218
w 363 362 341 1
w 363 362 -341 0
w 363 -362 341 0
w 363 -362 -341 1
w 364 363 342 1
w 364 363 -342 0
w 364 -363 342 0
w 364 -363 -342 0
w 365 364 343 0
w 365 364 -343 1
w 365 -364 343 0
w 365 -364 -343 0
w 366 365 344 1
w 366 365 -344 1
w 366 -365 344 0
w 366 -365 -344 1
w 367 366 345 1
w 367 366 -345 1
w 367 -366 345 0
w 367 -366 -345 0
w 368 367 346 1
w 368 367 -346 0
w 368 -367 346 0
w 368 -367 -346 1
w 369 368 347 1
w 369 368 -347 1
w 369 -368 347 0
w 369 -368 -347 0
w 370 369 348 1
w 370 369 -348 1
w 370 -369 348 0
w 370 -369 -348 1
w 371 370 349 0
w 371 370 -349 1
w 371 -370 349 1
w 371 -370 -349 1
w 372 371 350 0
w 372 371 -350 0
w 372 -371 350 1
w 372 -371 -350 1
w 373 372 351 0
w 373 372 -351 0
w 373 -372 351 1
w 373 -372 -351 0
w 374 373 352 0
w 374 373 -352 0
w 374 -373 352 1
w 374 -373 -352 0
w 375 353 0.319262
w 375 -353 0.163088
w 376 375 354 1
w 376 375 -354 0
w 376 -375 354 0
w 376 -375 -354 0
w 377 376 355 0.892765
w 377 376 -355 0.164574
w 377 -376 355 0.202771
w 377 -376 -355 0.352583
w 378 377 356 1
w 378 377 -356 0
w 378 -377 356 1
w 378 -377 -356 0
w 379 378 357 0
w 379 378 -357 1
w 379 -378 357 0
w 379 -378 -357 0
w 380 379 358 0
w 380 379 -358 1
w 380 -379 358 1
w 380 -379 -358 0
w 381 380 359 0
w 381 380 -359 0
w 381 -380 359 0
w 381 -380 -359 1
w 382 381 360 0
w 382 381 -360 0
w 382 -381 360 1
w 382 -381 -360 0
w 383 382 361 0
w 383 382 -361 1
w 383 -382 361 1
w 383 -382 -361 1
w 384 383 362 0
w 384 383 -362 0
w 384 -383 362 1
w 384 -383 -362 1
w 385 384 363 0
w 385 384 -363 1
w 385 -384 363 0
w 385 -384 -363 0
w 386 385 364 0
w 386 385 -364 0
w 386 -385 364 1
w 386 -385 -364 1
w 387 386 365 0.408513
w 387 386 -365 0.360071
w 387 -386 365 0.91162
w 387 -386 -365 0.833959
w 388 387 366 1
w 388 387 -366 0
w 388 -387 366 0
w 388 -387 -366 0
w 389 388 367 0
w 389 388 -367 1
w 389 -388 367 0
w 389 -388 -367 1
w 390 389 368 0.542854
w 390 389 -368 0.533162
w 390 -389 368 0.177453
w 390 -389 -368 0.401468
w 391 390 369 1
w 391 390 -369 0
w 391 -390 369 0
w 391 -390 -369 1
w 392 391 370 0
w 392 391 -370 1
w 392 -391 370 1
w 392 -391 -370 1
w 393 392 371 0
w 393 392 -371 1
w 393 -392 371 1
w 393 -392 -371 1
w 394 393 372 1
w 394 393 -372 0
w 394 -393 372 1
w 394 -393 -372 1
w 395 394 373 1
w 395 394 -373 1
w 395 -394 373 0
w 395 -394 -373 1
w 396 395 374 0
w 396 395 -374 1
w 396 -395 374 0
w 396 -395 -374 0
w 397 375 1
w 397 -375 0
w 398 397 376 0
w 398 397 -376 1
w 398 -397 376 0
w 398 -397 -376 0
w 399 398 377 1
w 399 398 -377 1
w 399 -398 377 0
w 399 -398 -377 0
w 400 399 378 0
w 400 399 -378 1
w 400 -399 378 1
w 400 -399 -378 1
w 401 400 379 0
w 401 400 -379 0
w 401 -400 379 1
w 401 -400 -379 0
w 402 401 380 0
w 402 401 -380 0
w 402 -401 380 0
w 402 -401 -380 1
w 403 402 381 0
w 403 402 -381 0
w 403 -402 381 0
w 403 -402 -381 1
w 404 403 382 1
w 404 403 -382 1
w 404 -403 382 0
w 404 -403 -382 1
w 405 404 383 0.751916
w 405 404 -383 0.053043
w 405 -404 383 0.165856
w 405 -404 -383 0.365801
w 406 405 384 1
w 406 405 -384 0
w 406 -405 384 1
w 406 -405 -384 1
w 407 406 385 0
w 407 406 -385 1
w 407 -406 385 0
w 407 -406 -385 0
w 408 407 386 0.922986
w 408 407 -386 0.807418
w 408 -407 386 0.744374
w 408 -407 -386 0.279385
w 409 408 387 0.0683069
w 409 408 -387 0.682402
w 409 -408 387 0.836241
w 409 -408 -387 0.773866
w 410 409 388 1
w 410 409 -388 1
w 410 -409 388 1
w 410 -409 -388 0
w 411 410 389 0.355174
w 411 410 -389 0.209201
w 411 -410 389 0.832717
w 411 -410 -389 0.52103
w 412 411 390 1
w 412 411 -390 0
w 412 -411 390 0
w 412 -411 -390 1
w 413 412 391 1
w 413 412 -391 0
w 413 -412 391 1
w 413 -412 -391 1
w 414 413 392 1
w 414 413 -392 0
w 414 -413 392 1
w 414 -413 -392 1
w 415 414 393 1
w 415 414 -393 1
w 415 -414 393 1
w 415 -414 -393 0
w 416 415 394 0
w 416 415 -394 1
w 416 -415 394 0
w 416 -415 -394 0
w 417 416 395 0
w 417 416 -395 0
w 417 -416 395 1
w 417 -416 -395 1
w 418 417 396 0.246849
w 418 417 -396 0.338695
w 418 -417 396 0.491919
w 418 -417 -396 0.723814
w 419 397 0.634995
w 419 -397 0.390625
w 420 419 398 1
w 420 419 -398 0
w 420 -419 398 0
w 420 -419 -398 0
w 421 420 399 1
w 421 420 -399 0
w 421 -420 399 1
w 421 -420 -399 1
w 422 421 400 0.698261
w 422 421 -400 0.427835
w 422 -421 400 0.4897
w 422 -421 -400 0.367564
w 423 422 401 1
w 423 422 -401 0
w 423 -422 401 0
w 423 -422 -401 0
w 424 423 402 0
w 424 423 -402 1
w 424 -423 402 1
w 424 -423 -402 1
w 425 424 403 1
w 425 424 -403 1
w 425 -424 403 0
w 425 -424 -403 1
w 426 425 404 0
w 426 425 -404 1
w 426 -425 404 1
w 426 -425 -404 1
w 427 426 405 0
w 427 426 -405 1
w 427 -426 405 1
w 427 -426 -405 1
w 428 427 406 0
w 428 427 -406 1
w 428 -427 406 0
w 428 -427 -406 1
w 429 428 407 0
w 429 428 -407 1
w 429 -428 407 1
w 429 -428 -407 0
w 430 429 408 0.954056
w 430 429 -408 0.194809
w 430 -429 408 0.317892
w 430 -429 -408 0.0412212
w 431 430 409 1
w 431 430 -409 0
w 431 -430 409 0
w 431 -430 -409 1
w 432 431 410 1
w 432 431 -410 0
w 432 -431 410 0
w 432 -431 -410 0
w 433 432 411 0
w 433 432 -411 0
w 433 -432 411 1
w 433 -432 -411 0
w 434 433 412 0.466999
w 434 433 -412 0.633603
w 434 -433 412 0.214183
w 434 -433 -412 0.525023
w 435 434 413 0.981118
w 435 434 -413 0.39959
w 435 -434 413 0.202259
w 435 -434 -413 0.545301
w 436 435 414 1
w 436 435 -414 1
w 436 -435 414 1
w 436 -435 -414 0
w 437 436 415 0
w 437 436 -415 0
w 437 -436 415 1
w 437 -436 -415 0
w 438 437 416 0
w 438 437 -416 0
w 438 -437 416 1
w 438 -437 -416 0
w 439 438 417 1
w 439 438 -417 1
w 439 -438 417 0
w 439 -438 -417 1
w 440 439 418 0
w 440 439 -418 0
w 440 -439 418 0
w 440 -439 -418 1
w 441 419 1
w 441 -419 0
w 442 441 420 0
w 442 441 -420 1
w 442 -441 420 1
w 442 -441 -420 1
w 443 442 421 0
w 443 442 -421 1
w 443 -442 421 0
w 443 -442 -421 0
w 444 443 422 0.597139
w 444 443 -422 0.648361
w 444 -443 422 0.113538
w 444 -443 -422 0.509097
w 445 444 423 0.746251
w 445 444 -423 0.0876663
w 445 -444 423 0.626583
w 445 -444 -423 0.163303
w 446 445 424 0.567063
w 446 445 -424 0.356895
w 446 -445 424 0.473869
w 446 -445 -424 0.493665
w 447 446 425 1
w 447 446 -425 0
w 447 -446 425 0
w 447 -446 -425 0
w 448 447 426 0.788305
w 448 447 -426 0.241769
w 448 -447 426 0.423558
w 448 -447 -426 0.745903
w 449 448 427 0.830872
w 449 448 -427 0.393788
w 449 -448 427 0.531331
w 449 -448 -427 0.295651
w 450 449 428 1
w 450 449 -428 1
w 450 -449 428 0
w 450 -449 -428 1
w 451 450 429 1
w 451 450 -429 1
w 451 -450 429 0
w 451 -450 -429 1
w 452 451 430 1
w 452 451 -430 1
w 452 -451 430 0
w 452 -451 -430 0
w 453 452 431 1
w 453 452 -431 0
w 453 -452 431 1
w 453 -452 -431 1
w 454 453 432 0.765778
w 454 453 -432 0.638603
w 454 -453 432 0.202651
w 454 -453 -432 0.511681
w 455 454 433 0
w 455 454 -433 0
w 455 -454 433 1
w 455 -454 -433 0
w 456 455 434 0
w 456 455 -434 1
w 456 -455 434 1
w 456 -455 -434 0
w 457 456 435 0
w 457 456 -435 1
w 457 -456 435 1
w 457 -456 -435 1
w 458 457 436 0
w 458 457 -436 0
w 458 -457 436 1
w 458 -457 -436 0
w 459 458 437 0
w 459 458 -437 1
w 459 -458 437 0
w 459 -458 -437 1
w 460 459 438 1
w 460 459 -438 1
w 460 -459 438 0
w 460 -459 -438 1
w 461 460 439 1
w 461 460 -439 0
w 461 -460 439 0
w 461 -460 -439 1
w 462 461 440 1
w 462 461 -440 1
w 462 -461 440 0
w 462 -461 -440 1
w 463 441 0
w 463 -441 1
w 464 463 442 1
w 464 463 -442 1
w 464 -463 442 1
w 464 -463 -442 0
w 465 464 443 0
w 465 464 -443 0
w 465 -464 443 1
w 465 -464 -443 1
w 466 465 444 0
w 466 465 -444 0
w 466 -465 444 0
w 466 -465 -444 1
w 467 466 445 1
w 467 466 -445 1
w 467 -466 445 0
w 467 -466 -445 1
w 468 467 446 1
w 468 467 -446 0
w 468 -467 446 1
w 468 -467 -446 0
w 469 468 447 1
w 469 468 -447 1
w 469 -468 447 1
w 469 -468 -447 0
w 470 469 448 0
w 470 469 -448 0
w 470 -469 448 0
w 470 -469 -448 1
w 471 470 449 0
w 471 470 -449 1
w 471 -470 449 1
w 471 -470 -449 1
w 472 471 450 0
w 472 471 -450 0
w 472 -471 450 1
w 472 -471 -450 1
w 473 472 451 1
w 473 472 -451 1
w 473 -472 451 0
w 473 -472 -451 0
w 474 473 452 1
w 474 473 -452 0
w 474 -473 452 0
w 474 -473 -452 1
w 475 474 453 1
w 475 474 -453 0
w 475 -474 453 1
w 475 -474 -453 0
w 476 475 454 0
w 476 475 -454 0
w 476 -475 454 1
w 476 -475 -454 0
w 477 476 455 1
w 477 476 -455 0
w 477 -476 455 0
w 477 -476 -455 1
w 478 477 456 0
w 478 477 -456 1
w 478 -477 456 1
w 478 -477 -456 1
w 479 478 457 0
w 479 478 -457 1
w 479 -478 457 1
w 479 -478 -457 0
w 480 479 458 0
w 480 479 -458 0
w 480 -479 458 0
w 480 -479 -458 1
w 481 480 459 0.275706
w 481 480 -459 0.664817
w 481 -480 459 0.37207
w 481 -480 -459 0.848357
w 482 481 460 0
w 482 481 -460 1
w 482 -481 460 1
w 482 -481 -460 0
w 483 482 461 0.89362
w 483 482 -461 0.928983
w 483 -482 461 0.186081
w 483 -482 -461 0.819115
w 484 483 462 0
w 484 483 -462 0
w 484 -483 462 1
w 484 -483 -462 1